(set-logic QF_FPABV)
(declare-fun b20 () (_ FP 8 24))
(declare-fun b11 () (_ FP 8 24))
(declare-fun b10 () (_ FP 8 24))
(declare-fun b17 () (_ FP 8 24))
(declare-fun b14 () (_ FP 8 24))
(define-fun .3 () RoundingMode roundNearestTiesToEven)
(define-fun .9 () (_ FP 8 24) b11)
(define-fun .10 () (_ FP 8 24) b10)
(define-fun .11 () Bool (< .9 .10))
(define-fun .12 () (_ FP 8 24) (/ .3 .10 .9))
(define-fun .13 () (_ FP 8 24) b14)
(define-fun .14 () (_ FP 8 24) (/ .3 .12 .13))
(define-fun .15 () (_ FP 8 24) b17)
(define-fun .16 () (_ FP 8 24) (/ .3 .14 .15))
(define-fun .17 () (_ FP 8 24) b20)
(define-fun .18 () Bool (< .16 .17))
(define-fun .19 () Bool (and .11 .18))
(define-fun .20 () Bool (<= .17 .9))
(define-fun .21 () Bool (and .19 .20))
(define-fun .22 () Bool (< .13 .12))
(define-fun .23 () Bool (and .21 .22))
(define-fun .24 () Bool (<= .17 .13))
(define-fun .25 () Bool (and .23 .24))
(define-fun .26 () Bool (< .15 .14))
(define-fun .27 () Bool (and .25 .26))
(define-fun .28 () Bool (<= .17 .15))
(define-fun .29 () Bool (and .27 .28))
(assert .29)
(check-sat)
